clingo version 5.7.1
Reading from campionato.cl
Solving...
Answer: 1
partita(roma,napoli,10) partita(atalanta,napoli,2) partita(lazio,napoli,3) partita(torino,napoli,6) partita(salernitana,napoli,7) partita(bologna,napoli,9) partita(cagliari,napoli,15) partita(empoli,napoli,14) partita(fiorentina,napoli,12) partita(frosinone,napoli,17) partita(genoa,napoli,22) partita(hellas_verona,napoli,21) partita(inter,napoli,25) partita(lecce,napoli,18) partita(nissa,napoli,28) partita(napoli,roma,24) partita(atalanta,roma,12) partita(lazio,roma,26) partita(torino,roma,5) partita(salernitana,roma,1) partita(bologna,roma,18) partita(cagliari,roma,11) partita(empoli,roma,29) partita(fiorentina,roma,3) partita(frosinone,roma,15) partita(genoa,roma,21) partita(hellas_verona,roma,8) partita(inter,roma,7) partita(lecce,roma,17) partita(nissa,roma,20) partita(napoli,atalanta,23) partita(roma,atalanta,16) partita(lazio,atalanta,1) partita(torino,atalanta,17) partita(salernitana,atalanta,20) partita(bologna,atalanta,4) partita(cagliari,atalanta,5) partita(empoli,atalanta,8) partita(fiorentina,atalanta,7) partita(frosinone,atalanta,10) partita(genoa,atalanta,11) partita(hellas_verona,atalanta,27) partita(inter,atalanta,13) partita(lecce,atalanta,24) partita(nissa,atalanta,30) partita(napoli,lazio,30) partita(roma,lazio,14) partita(atalanta,lazio,19) partita(torino,lazio,27) partita(salernitana,lazio,22) partita(bologna,lazio,2) partita(cagliari,lazio,4) partita(empoli,lazio,16) partita(fiorentina,lazio,28) partita(frosinone,lazio,6) partita(genoa,lazio,10) partita(hellas_verona,lazio,9) partita(inter,lazio,23) partita(lecce,lazio,13) partita(nissa,lazio,25) partita(napoli,torino,29) partita(roma,torino,23) partita(atalanta,torino,3) partita(lazio,torino,12) partita(salernitana,torino,13) partita(bologna,torino,7) partita(cagliari,torino,8) partita(empoli,torino,20) partita(fiorentina,torino,10) partita(frosinone,torino,22) partita(genoa,torino,16) partita(hellas_verona,torino,26) partita(inter,torino,18) partita(lecce,torino,30) partita(nissa,torino,4) partita(napoli,salernitana,16) partita(roma,salernitana,19) partita(atalanta,salernitana,14) partita(lazio,salernitana,5) partita(torino,salernitana,28) partita(bologna,salernitana,6) partita(cagliari,salernitana,2) partita(empoli,salernitana,3) partita(fiorentina,salernitana,21) partita(frosinone,salernitana,8) partita(genoa,salernitana,24) partita(hellas_verona,salernitana,12) partita(inter,salernitana,9) partita(lecce,salernitana,27) partita(nissa,salernitana,17) partita(napoli,bologna,27) partita(roma,bologna,13) partita(atalanta,bologna,26) partita(lazio,bologna,17) partita(torino,bologna,24) partita(salernitana,bologna,30) partita(cagliari,bologna,10) partita(empoli,bologna,21) partita(fiorentina,bologna,1) partita(frosinone,bologna,20) partita(genoa,bologna,8) partita(hellas_verona,bologna,5) partita(inter,bologna,15) partita(lecce,bologna,3) partita(nissa,bologna,11) partita(napoli,cagliari,26) partita(roma,cagliari,28) partita(atalanta,cagliari,29) partita(lazio,cagliari,24) partita(torino,cagliari,19) partita(salernitana,cagliari,23) partita(bologna,cagliari,16) partita(empoli,cagliari,17) partita(fiorentina,cagliari,9) partita(frosinone,cagliari,12) partita(genoa,cagliari,3) partita(hellas_verona,cagliari,14) partita(inter,cagliari,6) partita(lecce,cagliari,20) partita(nissa,cagliari,1) partita(napoli,empoli,19) partita(roma,empoli,4) partita(atalanta,empoli,22) partita(lazio,empoli,7) partita(torino,empoli,15) partita(salernitana,empoli,25) partita(bologna,empoli,12) partita(cagliari,empoli,13) partita(fiorentina,empoli,5) partita(frosinone,empoli,30) partita(genoa,empoli,18) partita(hellas_verona,empoli,1) partita(inter,empoli,28) partita(lecce,empoli,9) partita(nissa,empoli,27) partita(napoli,fiorentina,20) partita(roma,fiorentina,22) partita(atalanta,fiorentina,18) partita(lazio,fiorentina,8) partita(torino,fiorentina,25) partita(salernitana,fiorentina,11) partita(bologna,fiorentina,29) partita(cagliari,fiorentina,30) partita(empoli,fiorentina,23) partita(frosinone,fiorentina,26) partita(genoa,fiorentina,2) partita(hellas_verona,fiorentina,17) partita(inter,fiorentina,4) partita(lecce,fiorentina,6) partita(nissa,fiorentina,14) partita(napoli,frosinone,5) partita(roma,frosinone,27) partita(atalanta,frosinone,25) partita(lazio,frosinone,29) partita(torino,frosinone,9) partita(salernitana,frosinone,18) partita(bologna,frosinone,14) partita(cagliari,frosinone,21) partita(empoli,frosinone,11) partita(fiorentina,frosinone,13) partita(genoa,frosinone,7) partita(hellas_verona,frosinone,16) partita(inter,frosinone,2) partita(lecce,frosinone,1) partita(nissa,frosinone,23) partita(napoli,genoa,4) partita(roma,genoa,9) partita(atalanta,genoa,28) partita(lazio,genoa,20) partita(torino,genoa,1) partita(salernitana,genoa,15) partita(bologna,genoa,23) partita(cagliari,genoa,25) partita(empoli,genoa,6) partita(fiorentina,genoa,27) partita(frosinone,genoa,19) partita(hellas_verona,genoa,30) partita(inter,genoa,17) partita(lecce,genoa,14) partita(nissa,genoa,12) partita(napoli,hellas_verona,11) partita(roma,hellas_verona,25) partita(atalanta,hellas_verona,6) partita(lazio,hellas_verona,18) partita(torino,hellas_verona,2) partita(salernitana,hellas_verona,29) partita(bologna,hellas_verona,28) partita(cagliari,hellas_verona,22) partita(empoli,hellas_verona,24) partita(fiorentina,hellas_verona,15) partita(frosinone,hellas_verona,4) partita(genoa,hellas_verona,13) partita(inter,hellas_verona,20) partita(lecce,hellas_verona,10) partita(nissa,hellas_verona,7) partita(napoli,inter,1) partita(roma,inter,30) partita(atalanta,inter,21) partita(lazio,inter,11) partita(torino,inter,14) partita(salernitana,inter,26) partita(bologna,inter,19) partita(cagliari,inter,27) partita(empoli,inter,10) partita(fiorentina,inter,16) partita(frosinone,inter,24) partita(genoa,inter,5) partita(hellas_verona,inter,3) partita(lecce,inter,22) partita(nissa,inter,8) partita(napoli,lecce,8) partita(roma,lecce,2) partita(atalanta,lecce,15) partita(lazio,lecce,21) partita(torino,lecce,11) partita(salernitana,lecce,4) partita(bologna,lecce,25) partita(cagliari,lecce,7) partita(empoli,lecce,26) partita(fiorentina,lecce,19) partita(frosinone,lecce,28) partita(genoa,lecce,29) partita(hellas_verona,lecce,23) partita(inter,lecce,12) partita(nissa,lecce,16) partita(napoli,nissa,13) partita(roma,nissa,6) partita(atalanta,nissa,9) partita(lazio,nissa,15) partita(torino,nissa,21) partita(salernitana,nissa,10) partita(bologna,nissa,22) partita(cagliari,nissa,18) partita(empoli,nissa,2) partita(fiorentina,nissa,24) partita(frosinone,nissa,3) partita(genoa,nissa,26) partita(hellas_verona,nissa,19) partita(inter,nissa,29) partita(lecce,nissa,5)
SATISFIABLE

Models       : 1+
Calls        : 1
Time         : 312.406s (Solving: 311.84s 1st Model: 311.80s Unsat: 0.00s)
CPU Time     : 1108.859s
Threads      : 4        (Winner: 2)
